% File represents an instance of a Composite Structure problem to be solved by a CP framework
% Created on 2025-03-26 10:41:35.828
T = 58;
n = 25;
m = 40;
edges = [(1, 2),
(7, 6),
(12, 11),
(16, 17),
(22, 21),
(2, 3),
(7, 8),
(12, 13),
(18, 17),
(22, 23),
(4, 3),
(9, 8),
(14, 13),
(18, 19),
(23, 24),
(4, 5),
(9, 10),
(14, 15),
(19, 20),
(25, 24),
(1, 6),
(11, 6),
(16, 11),
(16, 21),
(7, 2),
(12, 7),
(12, 17),
(22, 17),
(8, 3),
(13, 8),
(18, 13),
(18, 23),
(9, 4),
(14, 9),
(14, 19),
(19, 24),
(10, 5),
(15, 10),
(15, 20),
(25, 20)];
counts = [|16, 6, 16, 12,
|16, 6, 16, 8,
|14, 4, 14, 8,
|16, 4, 16, 10,
|14, 2, 14, 10,
|16, 4, 16, 12,
|16, 6, 16, 12,
|16, 6, 16, 8,
|16, 6, 16, 14,
|16, 4, 16, 10,
|16, 6, 16, 14,
|16, 10, 16, 14,
|16, 10, 16, 10,
|16, 10, 16, 14,
|16, 10, 16, 10,
|16, 6, 16, 20,
|16, 6, 16, 14,
|16, 10, 16, 16,
|16, 8, 16, 14,
|16, 6, 16, 10,
|16, 6, 16, 18,
|16, 8, 16, 18,
|16, 8, 16, 16,
|16, 4, 16, 14,
|16, 6, 16, 14|];
